NAME: rand_0/map0_180
TYPE: TSP
COMMENT: autogenerated using a wonderful map creator
DIMENSION: 210
EDGE_WEIGHT_TYPE: EUC_2D
NODE_COORD_SECTION
1 34.0 62.0
2 1.0 12.0
3 61.0 16.0
4 62.0 27.0
5 62.0 24.0
6 1.0 9.0
7 37.0 63.0
8 62.0 21.0
9 1.0 13.0
10 63.0 16.0
11 61.0 27.0
12 35.0 63.0
13 1.0 14.0
14 63.0 24.0
15 35.0 1.0
16 61.0 26.0
17 61.0 19.0
18 40.0 4.0
19 34.0 63.0
20 37.0 1.0
21 2.0 9.0
22 36.0 2.0
23 41.0 1.0
24 48.0 63.0
25 43.0 62.0
26 37.0 5.0
27 41.0 61.0
28 61.0 20.0
29 62.0 31.0
30 2.0 11.0
31 43.0 1.0
32 62.0 17.0
33 62.0 16.0
34 62.0 12.0
35 2.0 15.0
36 46.0 62.0
37 62.0 14.0
38 39.0 2.0
39 47.0 62.0
40 2.0 16.0
41 36.0 1.0
42 37.0 61.0
43 61.0 25.0
44 61.0 22.0
45 2.0 10.0
46 63.0 31.0
47 40.0 1.0
48 35.0 2.0
49 37.0 4.0
50 44.0 61.0
51 40.0 63.0
52 41.0 4.0
53 1.0 15.0
54 36.0 63.0
55 34.0 61.0
56 61.0 21.0
57 1.0 18.0
58 44.0 62.0
59 2.0 21.0
60 61.0 29.0
61 47.0 53.0
62 27.0 50.0
63 16.0 29.0
64 41.0 58.0
65 28.0 58.0
66 28.0 12.0
67 58.0 22.0
68 34.0 37.0
69 63.0 61.0
70 60.0 46.0
71 59.0 57.0
72 19.0 57.0
73 10.0 54.0
74 2.0 50.0
75 20.0 31.0
76 63.0 45.0
77 52.0 8.0
78 22.0 37.0
79 26.0 53.0
80 38.0 55.0
81 31.0 49.0
82 46.0 13.0
83 49.0 9.0
84 16.0 6.0
85 61.0 38.0
86 8.0 41.0
87 53.0 18.0
88 16.0 33.0
89 46.0 34.0
90 40.0 36.0
91 32.0 62.0
92 51.0 20.0
93 26.0 55.0
94 4.0 34.0
95 16.0 63.0
96 10.0 31.0
97 1.0 28.0
98 55.0 8.0
99 46.0 27.0
100 45.0 7.0
101 47.0 4.0
102 44.0 42.0
103 30.0 52.0
104 22.0 14.0
105 38.0 32.0
106 57.0 45.0
107 45.0 25.0
108 40.0 38.0
109 3.0 37.0
110 40.0 56.0
111 4.0 36.0
112 44.0 17.0
113 13.0 14.0
114 12.0 49.0
115 47.0 43.0
116 16.0 19.0
117 59.0 54.0
118 18.0 16.0
119 11.0 32.0
120 42.0 47.0
121 8.0 54.0
122 51.0 52.0
123 48.0 35.0
124 11.0 50.0
125 38.0 43.0
126 15.0 41.0
127 41.0 5.0
128 23.0 24.0
129 57.0 1.0
130 14.0 30.0
131 50.0 17.0
132 35.0 7.0
133 58.0 39.0
134 36.0 45.0
135 46.0 22.0
136 54.0 14.0
137 46.0 31.0
138 58.0 14.0
139 44.0 12.0
140 15.0 6.0
141 18.0 57.0
142 28.0 25.0
143 24.0 18.0
144 54.0 7.0
145 37.0 55.0
146 17.0 52.0
147 38.0 20.0
148 23.0 10.0
149 30.0 58.0
150 49.0 38.0
151 61.0 3.0
152 41.0 9.0
153 32.0 6.0
154 12.0 37.0
155 41.0 18.0
156 45.0 34.0
157 8.0 15.0
158 2.0 63.0
159 44.0 23.0
160 27.0 37.0
161 11.0 20.0
162 22.0 50.0
163 14.0 46.0
164 46.0 26.0
165 9.0 41.0
166 28.0 54.0
167 23.0 12.0
168 31.0 25.0
169 40.0 37.0
170 47.0 15.0
171 6.0 44.0
172 28.0 20.0
173 44.0 16.0
174 18.0 61.0
175 39.0 4.0
176 23.0 51.0
177 38.0 15.0
178 12.0 5.0
179 28.0 56.0
180 24.0 34.0
181 5.0 63.0
182 38.0 33.0
183 4.0 10.0
184 35.0 43.0
185 59.0 10.0
186 55.0 21.0
187 44.0 55.0
188 28.0 13.0
189 42.0 21.0
190 57.0 3.0
191 31.0 48.0
192 56.0 47.0
193 8.0 37.0
194 9.0 36.0
195 21.0 1.0
196 2.0 30.0
197 23.0 53.0
198 46.0 30.0
199 59.0 58.0
200 33.0 48.0
201 21.0 28.0
202 24.0 45.0
203 56.0 22.0
204 24.0 54.0
205 50.0 18.0
206 22.0 29.0
207 1.0 61.0
208 42.0 14.0
209 16.0 4.0
210 25.0 16.0
211 22.0 47.0
212 5.0 40.0
213 46.0 23.0
214 24.0 20.0
215 55.0 7.0
216 38.0 37.0
217 10.0 48.0
218 17.0 63.0
219 44.0 4.0
220 16.0 52.0
221 10.0 11.0
222 56.0 51.0
223 28.0 44.0
224 6.0 7.0
225 58.0 54.0
226 60.0 51.0
227 10.0 41.0
228 61.0 4.0
229 13.0 49.0
230 53.0 30.0
231 28.0 10.0
232 10.0 59.0
233 29.0 39.0
234 22.0 33.0
235 63.0 50.0
236 20.0 45.0
237 9.0 24.0
238 60.0 35.0
239 37.0 49.0
240 44.0 27.0
START_DEPOT_SECTION
1
2
3
4
5
6
7
8
9
10
11
12
13
14
15
16
17
18
19
20
21
22
23
24
25
26
27
28
29
30
-1
END_DEPOT_SECTION
31
32
33
34
35
36
37
38
39
40
41
42
43
44
45
46
47
48
49
50
51
52
53
54
55
56
57
58
59
60
-1
EOF
